(set-info :Origin "This instance was generated by: BanditFuzz-- an RL fuzzer for SMT solvers" )
(set-info :Author "Joe Scott, Fed Mora, Vijay Ganesh" )
(set-info :Contact "Joe Scott, joseph.scott@uwaterloo.ca")
(set-logic QF_BV)
(declare-const bool_0 Bool)
(declare-const bool_1 Bool)
(declare-const bool_2 Bool)
(declare-const bool_3 Bool)
(declare-const bool_4 Bool)
(declare-const bv_0 (_ BitVec 32))
(declare-const bv_1 (_ BitVec 32))
(declare-const bv_2 (_ BitVec 32))
(declare-const bv_3 (_ BitVec 32))
(declare-const bv_4 (_ BitVec 32))
(assert (bvugt (bvshl (bvsdiv bv_2 #x413a90e6 ) (bvnor bv_0 #x2836cb94 )) (bvsmod (bvnor bv_4 #x2671584c ) (bvsub #x636254ef  #xe92cf554 ))))
(assert (bvsgt (bvsdiv (bvsdiv bv_1 #x5c4933d7 ) (bvsrem bv_2 #xc2e45540 )) (bvadd (bvxor bv_1 bv_1) (bvshl bv_3 bv_3))))
(assert (bvslt (bvashr (bvshl #xd321ffcd  bv_1) (bvsmod #xf73e1168  #x07c8b426 )) (bvmul (bvudiv #xae17d48d  bv_1) (bvnand #x009a993b  bv_1))))
(assert (or (xor (=> true false) (not true)) (bvsge (bvand bv_0 bv_2) (bvand #x1083caa8  bv_0))))
(assert (bvslt (bvxnor (bvurem bv_4 #xe6da73dd ) (bvxor #xdc441b2e  #xcc52e0d0 )) (bvnand (bvsub #xcda0d533  bv_3) (bvor bv_0 bv_0))))
(check-sat)
(exit)
